27 6
12 10 12 13 10 13
1 0 0 0 0 0 0 3 2 3 4
3 5 10 5 8 3 5 3 5 6 8
1 7 6 1 8 1 2 4 27 6 7 8
7 5 7 10 9 1 6 4 5 6 7 8
1 8 5 7 9 8 5 3 9 10 12
6 8 2 4 4 6 7 4 9 10 11 12
1 1 6 8 5 6 7 4 9 10 11 12
4 4 1 4 1 1 8 4 9 10 11 12
7 10 1 6 8 2 3 4 13 14 15 16
1 4 6 4 6 8 1 4 13 14 15 16
4 3 8 5 8 6 6 4 13 14 15 16
1 8 5 9 1 10 9 4 13 14 15 16
1 9 5 2 9 2 9 3 17 19 20
4 8 10 6 9 1 9 2 17 18
6 3 4 7 9 1 9 3 17 19 20
7 7 4 9 6 7 1 4 17 18 19 20
1 10 6 4 4 1 9 4 21 22 23 24
8 8 1 9 2 9 5 4 21 22 23 24
2 1 10 3 4 9 9 4 21 22 23 24
5 3 2 2 6 5 5 4 21 22 23 24
9 8 3 9 10 3 8 2 25 26
1 2 1 5 7 4 6 2 25 26
2 1 1 2 1 1 8 2 25 26
2 9 9 3 10 8 9 2 25 26
1 4 4 10 7 8 2 1 27
3 3 2 7 5 5 9 1 27
0 0 0 0 0 0 0 0
